SECTION Graph 
Nodes 688
Edges 1388
E 1 7 46
E 1 26 7
E 2 3 14
E 2 8 46
E 3 4 1
E 3 9 46
E 4 10 46
E 5 215 17
E 5 232 6
E 5 237 7
E 6 215 1
E 6 244 6
E 7 8 1
E 7 357 21
E 7 368 7
E 8 9 14
E 8 358 21
E 9 10 1
E 9 13 33
E 10 14 33
E 11 12 1
E 11 331 7
E 11 357 12
E 12 13 14
E 12 358 12
E 13 14 1
E 15 16 1
E 15 602 41
E 15 610 30
E 15 631 25
E 16 17 14
E 16 604 41
E 16 632 25
E 17 18 1
E 17 614 41
E 17 633 25
E 18 617 41
E 18 634 25
E 19 20 1
E 19 455 21
E 19 472 7
E 19 579 77
E 20 21 14
E 20 457 21
E 20 580 77
E 21 22 1
E 21 473 21
E 21 598 77
E 22 475 21
E 22 600 77
E 23 24 1
E 23 355 46
E 23 409 8
E 23 455 21
E 24 25 14
E 24 356 46
E 24 457 21
E 25 26 1
E 25 366 46
E 25 473 21
E 26 368 46
E 26 475 21
E 27 28 1
E 27 304 5
E 28 29 14
E 28 306 5
E 29 30 1
E 29 330 5
E 30 331 5
E 31 32 1
E 31 386 21
E 31 407 7
E 31 445 20
E 32 33 14
E 32 389 21
E 32 450 20
E 33 34 1
E 33 409 21
E 33 465 20
E 34 455 7
E 34 469 20
E 35 36 1
E 35 323 21
E 36 37 14
E 36 326 21
E 37 38 1
E 37 344 21
E 38 328 7
E 39 40 1
E 39 620 7
E 39 622 4
E 40 41 14
E 40 624 4
E 41 42 1
E 41 628 4
E 42 630 4
E 43 44 1
E 43 597 7
E 43 601 4
E 43 621 16
E 44 45 14
E 44 603 4
E 44 623 16
E 45 46 1
E 45 613 4
E 45 627 16
E 46 616 4
E 46 629 16
E 47 48 1
E 47 544 29
E 47 574 7
E 47 592 12
E 48 49 14
E 48 547 29
E 48 595 12
E 49 50 1
E 49 558 29
E 49 608 12
E 50 561 29
E 50 610 12
E 51 52 1
E 51 425 39
E 51 464 7
E 51 513 33
E 52 53 14
E 52 426 39
E 52 515 33
E 53 54 1
E 53 441 39
E 53 536 33
E 54 443 39
E 54 540 33
E 55 56 1
E 55 379 20
E 55 398 7
E 55 415 1
E 56 57 14
E 56 383 20
E 56 418 1
E 57 58 1
E 57 403 20
E 57 432 1
E 58 407 20
E 58 434 1
E 58 445 7
E 59 60 1
E 59 615 3
E 60 61 14
E 60 618 3
E 61 62 1
E 61 625 3
E 62 626 3
E 63 64 1
E 63 588 7
E 63 596 1
E 63 605 4
E 64 65 14
E 64 599 1
E 64 606 4
E 65 66 1
E 65 611 1
E 65 619 4
E 66 612 1
E 66 620 4
E 66 622 7
E 67 68 1
E 67 560 7
E 67 566 3
E 67 577 4
E 68 69 14
E 68 570 3
E 68 578 4
E 69 70 1
E 69 584 3
E 69 594 4
E 70 587 3
E 70 597 4
E 70 601 7
E 71 72 1
E 71 437 7
E 71 442 4
E 71 487 29
E 72 73 14
E 72 444 4
E 72 488 29
E 73 74 1
E 73 463 4
E 73 500 29
E 74 464 4
E 74 504 29
E 75 76 1
E 75 575 14
E 76 77 14
E 76 576 14
E 77 78 1
E 77 589 14
E 78 590 14
E 78 615 7
E 79 80 1
E 79 106 7
E 79 543 18
E 79 565 2
E 80 81 14
E 80 546 18
E 80 569 2
E 81 82 1
E 81 557 18
E 81 583 2
E 82 560 18
E 82 586 2
E 82 591 7
E 83 84 1
E 83 523 7
E 83 533 2
E 83 543 3
E 84 85 14
E 84 534 2
E 84 546 3
E 85 86 1
E 85 551 2
E 85 557 3
E 86 552 2
E 86 560 3
E 86 566 7
E 87 88 1
E 87 492 7
E 87 499 2
E 87 514 7
E 88 89 14
E 88 503 2
E 88 516 7
E 89 90 1
E 89 521 2
E 89 539 7
E 90 524 2
E 90 542 7
E 91 92 1
E 91 478 7
E 91 485 1
E 91 499 19
E 92 93 14
E 92 486 1
E 92 503 19
E 93 94 1
E 93 493 1
E 93 521 19
E 94 494 1
E 94 510 7
E 94 524 19
E 95 96 1
E 95 348 7
E 95 350 6
E 95 365 14
E 96 97 14
E 96 352 6
E 96 367 14
E 97 98 1
E 97 361 6
E 97 393 14
E 98 362 6
E 98 388 7
E 98 394 14
E 99 100 1
E 99 311 21
E 100 101 14
E 100 313 21
E 101 102 1
E 101 308 2
E 102 309 2
E 102 380 53
E 103 104 1
E 103 506 18
E 103 518 7
E 103 535 2
E 104 105 14
E 104 509 18
E 104 538 2
E 105 106 1
E 105 526 18
E 105 553 2
E 106 529 18
E 106 555 2
E 107 108 1
E 107 483 19
E 107 490 7
E 107 498 2
E 108 109 14
E 108 484 19
E 108 502 2
E 109 110 1
E 109 491 19
E 109 520 2
E 110 492 19
E 110 523 2
E 110 533 7
E 111 112 1
E 111 458 19
E 111 470 7
E 111 483 2
E 112 113 14
E 112 460 19
E 112 484 2
E 113 114 1
E 113 476 19
E 113 491 2
E 114 478 19
E 114 492 2
E 114 499 7
E 115 116 1
E 115 385 19
E 115 400 7
E 115 419 2
E 116 117 14
E 116 387 19
E 116 422 2
E 117 118 1
E 117 408 19
E 117 447 8
E 118 410 19
E 118 448 7
E 118 452 8
E 119 120 1
E 119 364 7
E 119 369 4
E 119 385 2
E 120 121 14
E 120 370 4
E 120 387 2
E 121 122 1
E 121 359 29
E 121 408 2
E 122 360 29
E 122 410 2
E 122 420 7
E 123 124 1
E 123 325 28
E 124 125 14
E 124 327 28
E 125 126 1
E 125 347 28
E 126 311 7
E 126 348 28
E 127 128 1
E 127 440 53
E 127 497 4
E 128 129 14
E 128 501 4
E 129 130 1
E 129 519 4
E 130 522 4
E 130 545 7
E 131 132 1
E 131 405 53
E 131 479 4
E 131 495 19
E 132 133 14
E 132 480 4
E 132 496 19
E 133 134 1
E 133 489 4
E 133 517 19
E 134 490 4
E 134 505 7
E 134 518 19
E 135 136 1
E 135 154 53
E 135 446 2
E 135 479 19
E 136 137 14
E 136 451 2
E 136 480 19
E 137 138 1
E 137 466 2
E 137 489 19
E 138 470 2
E 138 483 7
E 138 490 19
E 139 140 1
E 139 345 53
E 139 421 1
E 139 446 19
E 140 141 14
E 140 424 1
E 140 451 19
E 141 142 1
E 141 436 1
E 141 466 19
E 142 439 1
E 142 458 7
E 142 470 19
E 143 144 1
E 143 293 53
E 143 353 2
E 143 373 19
E 144 145 14
E 144 354 2
E 144 376 19
E 145 146 1
E 145 363 2
E 145 397 19
E 146 364 2
E 146 385 7
E 146 400 19
E 147 148 1
E 147 353 29
E 148 149 14
E 148 354 29
E 149 150 1
E 149 363 29
E 150 343 7
E 150 364 29
E 151 152 1
E 151 321 21
E 151 337 7
E 151 377 23
E 152 153 14
E 152 324 21
E 152 381 23
E 153 154 1
E 153 341 21
E 153 401 23
E 154 345 21
E 154 405 23
E 155 156 1
E 155 279 21
E 155 288 7
E 155 300 6
E 156 157 14
E 156 281 21
E 156 301 6
E 157 158 1
E 157 291 21
E 157 310 6
E 158 293 21
E 158 312 6
E 158 378 53
E 159 160 1
E 159 292 76
E 159 372 4
E 160 161 14
E 160 375 4
E 161 162 1
E 161 396 4
E 162 399 4
E 162 438 22
E 163 164 1
E 163 287 53
E 163 314 23
E 163 372 21
E 164 165 14
E 164 317 23
E 164 375 21
E 165 166 1
E 165 334 23
E 165 396 21
E 166 337 23
E 166 377 7
E 166 399 21
E 167 168 1
E 167 270 53
E 167 282 17
E 167 298 1
E 168 169 14
E 168 283 17
E 168 299 1
E 169 170 1
E 169 295 17
E 169 305 1
E 170 297 17
E 170 307 1
E 170 315 7
E 171 172 1
E 171 175 23
E 171 246 7
E 171 254 6
E 172 173 14
E 172 176 23
E 172 255 6
E 173 174 1
E 173 177 23
E 173 260 6
E 174 178 23
E 174 261 6
E 174 273 53
E 175 176 1
E 175 236 7
E 176 177 14
E 177 178 1
E 178 274 76
E 179 180 1
E 179 278 17
E 180 181 14
E 180 280 17
E 181 182 1
E 181 290 17
E 182 292 17
E 183 184 1
E 183 187 21
E 183 278 4
E 184 185 14
E 184 188 21
E 184 280 4
E 185 186 1
E 185 189 21
E 185 290 4
E 186 190 21
E 186 292 4
E 186 294 7
E 187 188 1
E 187 251 45
E 188 189 14
E 188 253 45
E 189 190 1
E 189 266 23
E 190 268 23
E 190 272 7
E 191 192 1
E 191 195 21
E 191 206 7
E 191 230 23
E 192 193 14
E 192 196 21
E 192 231 23
E 193 194 1
E 193 197 21
E 193 234 23
E 194 198 21
E 194 236 23
E 195 196 1
E 195 218 78
E 195 225 7
E 196 197 14
E 196 219 78
E 197 198 1
E 197 220 78
E 198 221 78
E 199 200 1
E 199 214 21
E 199 218 39
E 200 201 14
E 200 219 39
E 201 202 1
E 201 216 14
E 202 217 14
E 203 204 1
E 203 222 21
E 204 223 21
E 204 226 8
E 205 206 1
E 205 224 21
E 205 226 6
E 205 228 23
E 206 225 21
E 206 229 23
E 207 208 1
E 207 211 25
E 207 222 78
E 208 209 14
E 208 212 25
E 208 223 78
E 209 210 1
E 209 213 25
E 209 224 78
E 210 214 25
E 210 218 7
E 210 225 78
E 211 212 1
E 212 213 14
E 213 214 1
E 214 216 22
E 215 242 6
E 216 217 1
E 216 220 25
E 217 221 25
E 218 219 1
E 219 220 14
E 220 221 1
E 222 223 1
E 223 224 14
E 224 225 1
E 226 227 23
E 227 228 6
E 227 232 23
E 228 229 1
E 228 233 23
E 229 230 7
E 229 235 23
E 230 231 1
E 230 238 23
E 231 234 14
E 231 239 23
E 232 233 6
E 233 235 1
E 233 242 23
E 234 236 1
E 234 243 23
E 235 237 6
E 235 238 7
E 236 246 23
E 237 240 7
E 237 245 17
E 238 239 1
E 238 240 6
E 239 241 6
E 239 243 14
E 240 241 1
E 240 250 17
E 241 248 14
E 241 252 17
E 242 244 1
E 242 245 1
E 243 246 1
E 243 248 6
E 244 247 1
E 245 247 1
E 245 250 7
E 246 249 6
E 247 251 7
E 248 249 1
E 248 256 17
E 249 254 7
E 249 258 17
E 250 251 1
E 250 252 1
E 251 253 1
E 252 253 1
E 252 256 14
E 253 257 14
E 254 255 1
E 254 262 17
E 255 260 14
E 255 264 17
E 256 257 1
E 256 258 1
E 257 259 1
E 257 266 22
E 258 259 1
E 258 262 7
E 259 263 7
E 259 268 22
E 260 261 1
E 260 267 17
E 261 270 17
E 261 282 53
E 262 263 1
E 262 264 1
E 263 265 1
E 263 272 45
E 264 265 1
E 264 267 14
E 265 269 14
E 265 275 45
E 266 268 1
E 267 269 1
E 267 270 1
E 268 314 76
E 269 271 1
E 269 284 45
E 270 271 1
E 271 287 45
E 271 298 53
E 272 275 1
E 272 294 21
E 273 276 1
E 273 282 6
E 274 277 1
E 274 279 2
E 275 284 14
E 275 296 21
E 276 283 6
E 276 285 14
E 277 281 2
E 277 286 14
E 278 280 1
E 279 281 1
E 280 290 14
E 281 291 14
E 282 283 1
E 283 295 14
E 284 287 1
E 284 302 21
E 285 288 1
E 285 295 6
E 286 289 1
E 286 291 2
E 287 303 21
E 288 297 6
E 289 293 2
E 289 353 53
E 290 292 1
E 291 293 1
E 294 296 1
E 295 297 1
E 296 302 14
E 297 300 7
E 298 299 1
E 298 314 22
E 299 305 14
E 299 317 22
E 300 301 1
E 300 315 17
E 301 310 14
E 301 319 17
E 302 303 1
E 303 372 53
E 304 306 1
E 304 328 12
E 305 307 1
E 305 334 22
E 306 329 12
E 306 330 14
E 307 318 7
E 307 337 22
E 308 309 1
E 308 332 19
E 309 333 19
E 309 386 53
E 310 312 1
E 310 335 17
E 311 313 1
E 311 316 2
E 312 339 17
E 312 391 53
E 313 320 2
E 313 332 14
E 314 317 1
E 315 318 1
E 315 319 1
E 316 320 1
E 316 350 20
E 317 334 14
E 318 321 1
E 318 322 1
E 319 322 1
E 319 335 14
E 320 336 14
E 320 352 20
E 321 324 1
E 322 324 1
E 322 338 14
E 323 326 1
E 323 380 44
E 324 341 14
E 325 327 1
E 325 343 14
E 326 344 14
E 326 384 44
E 327 346 14
E 327 347 14
E 328 329 1
E 328 355 21
E 329 349 14
E 329 356 21
E 330 331 1
E 330 349 12
E 331 351 12
E 332 333 1
E 332 336 2
E 333 340 2
E 334 337 1
E 335 338 1
E 335 339 1
E 336 340 1
E 336 361 20
E 338 341 1
E 338 342 1
E 339 342 1
E 340 362 20
E 340 379 30
E 341 345 1
E 342 345 1
E 342 421 53
E 343 346 1
E 343 369 25
E 344 355 8
E 344 404 44
E 346 359 14
E 346 370 25
E 347 348 1
E 347 359 14
E 348 360 14
E 349 351 1
E 349 366 21
E 350 352 1
E 351 357 7
E 351 368 21
E 352 361 14
E 353 354 1
E 354 363 14
E 355 356 1
E 356 366 14
E 357 358 1
E 359 360 1
E 360 365 7
E 361 362 1
E 362 371 7
E 363 364 1
E 365 367 1
E 365 420 29
E 366 368 1
E 367 393 14
E 367 423 29
E 369 370 1
E 370 429 37
E 371 374 1
E 371 388 6
E 372 375 1
E 373 376 1
E 373 378 2
E 374 390 6
E 374 395 14
E 375 396 14
E 376 382 2
E 376 397 14
E 377 381 1
E 377 413 21
E 378 382 1
E 378 391 6
E 379 383 1
E 380 384 1
E 380 386 2
E 381 401 14
E 381 416 21
E 382 392 6
E 382 402 14
E 383 403 14
E 384 389 2
E 384 404 14
E 385 387 1
E 386 389 1
E 387 408 14
E 388 390 1
E 388 442 39
E 389 409 14
E 390 411 14
E 390 444 39
E 391 392 1
E 391 421 18
E 392 414 14
E 392 424 18
E 393 394 1
E 393 429 25
E 394 430 25
E 395 398 1
E 395 411 6
E 396 399 1
E 397 400 1
E 397 402 2
E 398 412 6
E 399 413 7
E 400 406 2
E 401 405 1
E 401 431 21
E 402 406 1
E 402 414 6
E 403 407 1
E 404 409 2
E 405 433 21
E 406 417 6
E 406 419 7
E 408 410 1
E 411 412 1
E 411 463 39
E 412 425 7
E 412 464 39
E 413 416 1
E 414 417 1
E 414 436 18
E 415 418 1
E 415 425 5
E 416 431 14
E 417 427 7
E 417 439 18
E 418 426 5
E 418 432 14
E 419 422 1
E 419 427 6
E 420 423 1
E 420 448 21
E 421 424 1
E 422 428 6
E 423 435 14
E 423 453 21
E 424 436 14
E 425 426 1
E 426 441 14
E 427 428 1
E 427 456 18
E 428 447 14
E 428 459 18
E 429 430 1
E 429 435 4
E 430 437 4
E 430 442 7
E 431 433 1
E 431 438 4
E 432 434 1
E 432 441 5
E 433 440 4
E 433 497 53
E 434 443 5
E 434 449 7
E 435 437 1
E 435 467 21
E 436 439 1
E 437 471 21
E 438 440 1
E 439 456 7
E 441 443 1
E 442 444 1
E 444 463 14
E 445 449 1
E 445 450 1
E 446 451 1
E 447 452 1
E 447 474 18
E 448 453 1
E 448 461 8
E 449 454 1
E 450 454 1
E 450 465 14
E 451 466 14
E 452 461 7
E 452 477 18
E 453 462 8
E 453 467 14
E 454 468 14
E 455 457 1
E 456 458 1
E 456 459 1
E 457 473 14
E 458 460 1
E 459 460 1
E 459 474 14
E 460 476 14
E 461 462 1
E 461 485 18
E 462 481 14
E 462 486 18
E 463 464 1
E 465 468 1
E 465 469 1
E 466 470 1
E 467 471 1
E 467 481 8
E 468 472 1
E 468 567 77
E 469 472 1
E 471 482 8
E 472 572 77
E 473 475 1
E 474 476 1
E 474 477 1
E 476 478 1
E 477 478 1
E 477 485 7
E 479 480 1
E 480 489 14
E 481 482 1
E 481 493 18
E 482 487 7
E 482 494 18
E 483 484 1
E 484 491 14
E 485 486 1
E 486 493 14
E 487 488 1
E 487 508 18
E 488 500 14
E 488 511 18
E 489 490 1
E 491 492 1
E 493 494 1
E 494 508 7
E 495 496 1
E 495 497 2
E 496 501 2
E 496 517 14
E 497 501 1
E 498 502 1
E 498 505 2
E 499 503 1
E 500 504 1
E 500 528 18
E 501 519 14
E 502 507 2
E 502 520 14
E 503 521 14
E 504 513 7
E 504 531 18
E 505 506 1
E 505 507 1
E 506 509 1
E 507 509 1
E 507 525 14
E 508 510 1
E 508 511 1
E 509 526 14
E 510 512 1
E 510 549 28
E 511 512 1
E 511 528 14
E 512 530 14
E 512 550 28
E 513 515 1
E 513 544 18
E 514 516 1
E 514 533 12
E 515 536 14
E 515 547 18
E 516 534 12
E 516 539 14
E 517 518 1
E 517 519 2
E 518 522 2
E 519 522 1
E 520 523 1
E 520 525 2
E 521 524 1
E 522 535 7
E 523 527 2
E 525 526 1
E 525 527 1
E 526 529 1
E 527 529 1
E 528 530 1
E 528 531 1
E 529 543 7
E 530 532 1
E 530 571 28
E 531 532 1
E 531 544 7
E 532 574 28
E 533 534 1
E 534 551 14
E 535 537 1
E 535 538 1
E 536 540 1
E 536 558 18
E 537 541 1
E 537 545 3
E 538 541 1
E 538 553 14
E 539 542 1
E 539 551 12
E 540 561 18
E 540 567 22
E 541 548 3
E 541 554 14
E 542 549 7
E 542 552 12
E 543 546 1
E 544 547 1
E 545 548 1
E 546 557 14
E 547 558 14
E 548 559 14
E 549 550 1
E 549 563 12
E 550 564 12
E 550 571 14
E 551 552 1
E 552 563 7
E 553 554 1
E 553 555 1
E 554 556 1
E 554 559 3
E 555 556 1
E 555 565 7
E 556 562 3
E 556 568 7
E 557 560 1
E 558 561 1
E 559 562 1
E 561 602 30
E 562 575 8
E 563 564 1
E 563 566 2
E 564 570 2
E 564 581 14
E 565 568 1
E 565 569 1
E 566 570 1
E 567 572 1
E 568 573 1
E 568 575 4
E 569 573 1
E 569 583 14
E 570 584 14
E 571 574 1
E 571 581 12
E 572 579 7
E 573 576 4
E 573 585 14
E 574 582 12
E 575 576 1
E 576 589 14
E 577 578 1
E 577 591 14
E 578 593 14
E 578 594 14
E 579 580 1
E 579 602 18
E 580 598 14
E 580 604 18
E 581 582 1
E 581 584 2
E 582 587 2
E 582 592 7
E 583 585 1
E 583 586 1
E 584 587 1
E 585 588 1
E 585 589 4
E 586 588 1
E 586 596 7
E 588 590 4
E 589 590 1
E 590 605 7
E 591 593 1
E 591 596 2
E 592 595 1
E 592 601 5
E 593 599 2
E 593 607 14
E 594 597 1
E 594 607 14
E 595 603 5
E 595 608 14
E 596 599 1
E 597 609 14
E 598 600 1
E 598 614 18
E 599 611 14
E 600 617 18
E 601 603 1
E 602 604 1
E 603 613 14
E 604 614 14
E 605 606 1
E 605 615 14
E 606 618 14
E 606 619 14
E 607 609 1
E 607 611 2
E 608 610 1
E 608 613 5
E 609 612 2
E 610 616 5
E 611 612 1
E 612 621 7
E 613 616 1
E 614 617 1
E 615 618 1
E 618 625 14
E 619 620 1
E 619 625 14
E 620 626 14
E 621 622 1
E 621 623 1
E 622 624 1
E 623 624 1
E 623 627 14
E 624 628 14
E 625 626 1
E 627 628 1
E 627 629 1
E 628 630 1
E 629 630 1
E 629 631 30
E 631 632 1
E 632 633 14
E 633 634 1
E 1 635 100000
E 2 635 100000
E 3 635 100000
E 4 635 100000
E 5 636 100000
E 6 636 100000
E 7 637 100000
E 8 637 100000
E 9 637 100000
E 10 637 100000
E 11 638 100000
E 12 638 100000
E 13 638 100000
E 14 638 100000
E 15 639 100000
E 16 639 100000
E 17 639 100000
E 18 639 100000
E 19 640 100000
E 20 640 100000
E 21 640 100000
E 22 640 100000
E 23 641 100000
E 24 641 100000
E 25 641 100000
E 26 641 100000
E 27 642 100000
E 28 642 100000
E 29 642 100000
E 30 642 100000
E 31 643 100000
E 32 643 100000
E 33 643 100000
E 34 643 100000
E 35 644 100000
E 36 644 100000
E 37 644 100000
E 38 644 100000
E 39 645 100000
E 40 645 100000
E 41 645 100000
E 42 645 100000
E 43 646 100000
E 44 646 100000
E 45 646 100000
E 46 646 100000
E 47 647 100000
E 48 647 100000
E 49 647 100000
E 50 647 100000
E 51 648 100000
E 52 648 100000
E 53 648 100000
E 54 648 100000
E 55 649 100000
E 56 649 100000
E 57 649 100000
E 58 649 100000
E 59 650 100000
E 60 650 100000
E 61 650 100000
E 62 650 100000
E 63 651 100000
E 64 651 100000
E 65 651 100000
E 66 651 100000
E 67 652 100000
E 68 652 100000
E 69 652 100000
E 70 652 100000
E 71 653 100000
E 72 653 100000
E 73 653 100000
E 74 653 100000
E 75 654 100000
E 76 654 100000
E 77 654 100000
E 78 654 100000
E 79 655 100000
E 80 655 100000
E 81 655 100000
E 82 655 100000
E 83 656 100000
E 84 656 100000
E 85 656 100000
E 86 656 100000
E 87 657 100000
E 88 657 100000
E 89 657 100000
E 90 657 100000
E 91 658 100000
E 92 658 100000
E 93 658 100000
E 94 658 100000
E 95 659 100000
E 96 659 100000
E 97 659 100000
E 98 659 100000
E 99 660 100000
E 100 660 100000
E 101 660 100000
E 102 660 100000
E 103 661 100000
E 104 661 100000
E 105 661 100000
E 106 661 100000
E 107 662 100000
E 108 662 100000
E 109 662 100000
E 110 662 100000
E 111 663 100000
E 112 663 100000
E 113 663 100000
E 114 663 100000
E 115 664 100000
E 116 664 100000
E 117 664 100000
E 118 664 100000
E 119 665 100000
E 120 665 100000
E 121 665 100000
E 122 665 100000
E 123 666 100000
E 124 666 100000
E 125 666 100000
E 126 666 100000
E 127 667 100000
E 128 667 100000
E 129 667 100000
E 130 667 100000
E 131 668 100000
E 132 668 100000
E 133 668 100000
E 134 668 100000
E 135 669 100000
E 136 669 100000
E 137 669 100000
E 138 669 100000
E 139 670 100000
E 140 670 100000
E 141 670 100000
E 142 670 100000
E 143 671 100000
E 144 671 100000
E 145 671 100000
E 146 671 100000
E 147 672 100000
E 148 672 100000
E 149 672 100000
E 150 672 100000
E 151 673 100000
E 152 673 100000
E 153 673 100000
E 154 673 100000
E 155 674 100000
E 156 674 100000
E 157 674 100000
E 158 674 100000
E 159 675 100000
E 160 675 100000
E 161 675 100000
E 162 675 100000
E 163 676 100000
E 164 676 100000
E 165 676 100000
E 166 676 100000
E 167 677 100000
E 168 677 100000
E 169 677 100000
E 170 677 100000
E 171 678 100000
E 172 678 100000
E 173 678 100000
E 174 678 100000
E 175 679 100000
E 176 679 100000
E 177 679 100000
E 178 679 100000
E 179 680 100000
E 180 680 100000
E 181 680 100000
E 182 680 100000
E 183 681 100000
E 184 681 100000
E 185 681 100000
E 186 681 100000
E 187 682 100000
E 188 682 100000
E 189 682 100000
E 190 682 100000
E 191 683 100000
E 192 683 100000
E 193 683 100000
E 194 683 100000
E 195 684 100000
E 196 684 100000
E 197 684 100000
E 198 684 100000
E 199 685 100000
E 200 685 100000
E 201 685 100000
E 202 685 100000
E 203 686 100000
E 204 686 100000
E 205 686 100000
E 206 686 100000
E 207 687 100000
E 208 687 100000
E 209 687 100000
E 210 687 100000
E 211 688 100000
E 212 688 100000
E 213 688 100000
E 214 688 100000
E 215 636 100000
END 

SECTION Terminals 
Terminals 54
TP 635 662
TP 636 663
TP 637 664
TP 638 665
TP 639 666
TP 640 667
TP 641 668
TP 642 669
TP 643 670
TP 644 671
TP 645 672
TP 646 673
TP 647 674
TP 648 675
TP 649 676
TP 650 677
TP 651 678
TP 652 679
TP 653 680
TP 654 681
TP 655 682
TP 656 683
TP 657 684
TP 658 685
TP 659 686
TP 660 687
TP 661 688
END 
